Sun 20 May 09:32:35 CEST 2018
CPXPARAM_TimeLimit                               45
CPXPARAM_Threads                                 4
CPXPARAM_MIP_Strategy_CallbackReducedLP          0
Tried aggregator 3 times.
MIP Presolve eliminated 3649 rows and 3164 columns.
MIP Presolve modified 2607 coefficients.
Aggregator did 5377 substitutions.
Reduced MIP has 7039 rows, 5562 columns, and 16453 nonzeros.
Reduced MIP has 5438 binaries, 9 generals, 0 SOSs, and 953 indicators.
Presolve time = 0.06 sec. (117.81 ticks)
Probing time = 0.07 sec. (35.13 ticks)
Cover probing fixed 0 vars, tightened 8 bounds.
Tried aggregator 3 times.
MIP Presolve modified 122 coefficients.
Aggregator did 3512 substitutions.
Reduced MIP has 3527 rows, 2050 columns, and 9429 nonzeros.
Reduced MIP has 1926 binaries, 124 generals, 0 SOSs, and 953 indicators.
Presolve time = 0.02 sec. (21.13 ticks)
Probing time = 0.06 sec. (51.75 ticks)
Tried aggregator 1 time.
Reduced MIP has 3527 rows, 2050 columns, and 9429 nonzeros.
Reduced MIP has 1926 binaries, 124 generals, 0 SOSs, and 953 indicators.
Presolve time = 0.01 sec. (8.48 ticks)
Probing time = 0.00 sec. (3.25 ticks)
Clique table members: 48816.
MIP emphasis: balance optimality and feasibility.
MIP search method: dynamic search.
Parallel mode: deterministic, using up to 4 threads.
Root relaxation solution time = 0.02 sec. (25.79 ticks)

        Nodes                                         Cuts/
   Node  Left     Objective  IInf  Best Integer    Best Bound    ItCnt     Gap

      0     0        2.0000   820                      2.0000      269         
*     0+    0                            6.0000        2.0000            66.67%
      0     0        2.0000   618        6.0000  Cliques: 981      540   66.67%
*     0+    0                            4.0000        2.0000            50.00%
      0     0        2.0000   243        4.0000  Cliques: 981      861   25.00%

Repeating presolve.
Tried aggregator 1 time.
Presolve time = 0.00 sec. (2.66 ticks)
Represolve time = 0.01 sec. (4.26 ticks)

Root node processing (before b&c):
  Real time             =    2.78 sec. (2813.49 ticks)
Parallel b&c, 4 threads:
  Real time             =    0.00 sec. (0.00 ticks)
  Sync time (average)   =    0.00 sec.
  Wait time (average)   =    0.00 sec.
                          ------------
Total (root+branch&cut) =    2.78 sec. (2813.49 ticks)
   | W
 L | 0 1 2 3 4 5 6 7 8 
----------------------
 0 | . . 8 8 8 8 8 5 4 
 1 | 3 1 8 8 8 8 8 . 2 
 2 | 6 6 8 8 8 8 8 7 7 
 3 | 6 6 8 8 8 8 8 7 7 
 4 | . . . . . . . . . 
 5 | . . . . . . . . . 
 6 | . . . . . . . . . 
 7 | . . . . . . . . . 
 8 | . . . . . . . . . 
 9 | . . . . . . . . . 
10 | . . . . . . . . . 
11 | . . . . . . . . . 
12 | . . . . . . . . . 
13 | . . . . . . . . . 

Boxes' corners:      (w,l)
    Box 1 is at 
        top left     (1,1)
        bottom right (1,1)

    Box 2 is at 
        top left     (8,1)
        bottom right (8,1)

    Box 3 is at 
        top left     (0,1)
        bottom right (0,1)

    Box 4 is at 
        top left     (8,0)
        bottom right (8,0)

    Box 5 is at 
        top left     (7,0)
        bottom right (7,0)

    Box 6 is at 
        top left     (0,2)
        bottom right (1,3)

    Box 7 is at 
        top left     (7,2)
        bottom right (8,3)

    Box 8 is at 
        top left     (2,0)
        bottom right (6,3)

    Roll length used: 4
In 7.83 seconds
